1617198
97,89,91,11,104,58,54,102,105,96,93,87,68,13,21,80,48,17,53,15,22,64,23,74,92,56,103,30,6,95,32,43,61,85,44,20,63,3,52,34,1,35,101,5,98,82,45,90,109,24,10,49,41,38,26,37,9,66,77,29,2,84,51,59,81,46,94,16,107,25,83,79,4,67,100,70,69,27,86,57,75,72,31,39,14,55,12,28,40,36,42,106,62,108,8,7,65,78,88,33,18,73,19,99,76,50,60,71,47